* #variable= 500 #constraint= 1
min: -438 x1 -916 x2 -450 x3 -925 x4 -336 x5 -278 x6 -497 x7 -170 x8 -394 x9 -336 x10 -856 x11 -439 x12 -475 x13 -120 x14 -906 x15 -74 x16 -851 x17 -613 x18 -496 x19 -217 x20 -722 x21 -69 x22 -137 x23 -753 x24 -970 x25 -417 x26 -786 x27 -840 x28 -211 x29 -877 x30 -843 x31 -810 x32 -707 x33 -604 x34 -446 x35 -504 x36 -359 x37 -49 x38 -412 x39 -280 x40 -579 x41 -872 x42 -806 x43 -965 x44 -970 x45 -250 x46 -629 x47 -278 x48 -83 x49 -223 x50 -270 x51 -317 x52 -208 x53 -422 x54 -326 x55 -174 x56 -844 x57 -800 x58 -509 x59 -703 x60 -416 x61 -779 x62 -90 x63 -862 x64 -634 x65 -530 x66 -755 x67 -989 x68 -362 x69 -730 x70 -407 x71 -227 x72 -930 x73 -799 x74 -387 x75 -325 x76 -242 x77 -205 x78 -229 x79 -674 x80 -173 x81 -706 x82 -184 x83 -572 x84 -124 x85 -64 x86 -156 x87 -369 x88 -77 x89 -913 x90 -753 x91 -809 x92 -512 x93 -675 x94 -552 x95 -995 x96 -405 x97 -323 x98 -94 x99 -432 x100 -453 x101 -157 x102 -254 x103 -145 x104 -563 x105 -329 x106 -866 x107 -259 x108 -191 x109 -258 x110 -142 x111 -800 x112 -167 x113 -217 x114 -209 x115 -194 x116 -530 x117 -542 x118 -944 x119 -361 x120 -419 x121 -838 x122 -289 x123 -252 x124 -198 x125 -864 x126 -369 x127 -644 x128 -474 x129 -593 x130 -50 x131 -515 x132 -771 x133 -375 x134 -973 x135 -884 x136 -106 x137 -387 x138 -840 x139 -732 x140 -980 x141 -967 x142 -932 x143 -29 x144 -628 x145 -951 x146 -789 x147 -188 x148 -70 x149 -237 x150 -87 x151 -160 x152 -881 x153 -932 x154 -921 x155 -691 x156 -759 x157 -894 x158 -57 x159 -694 x160 -636 x161 -769 x162 -996 x163 -284 x164 -505 x165 -740 x166 -160 x167 -16 x168 -580 x169 -119 x170 -128 x171 -139 x172 -214 x173 -736 x174 -434 x175 -725 x176 -376 x177 -218 x178 -217 x179 -549 x180 -731 x181 -160 x182 -267 x183 -716 x184 -91 x185 -672 x186 -438 x187 -307 x188 -102 x189 -338 x190 -323 x191 -669 x192 -455 x193 -319 x194 -631 x195 -678 x196 -338 x197 -215 x198 -218 x199 -243 x200 -483 x201 -379 x202 -534 x203 -340 x204 -80 x205 -705 x206 -694 x207 -636 x208 -471 x209 -109 x210 -832 x211 -969 x212 -685 x213 -620 x214 -569 x215 -111 x216 -541 x217 -660 x218 -731 x219 -519 x220 -41 x221 -72 x222 -885 x223 -748 x224 -503 x225 -640 x226 -511 x227 -270 x228 -179 x229 -644 x230 -833 x231 -671 x232 -485 x233 -65 x234 -743 x235 -771 x236 -207 x237 -268 x238 -787 x239 -989 x240 -150 x241 -836 x242 -631 x243 -389 x244 -906 x245 -996 x246 -149 x247 -837 x248 -907 x249 -86 x250 -269 x251 -187 x252 -618 x253 -147 x254 -106 x255 -152 x256 -993 x257 -742 x258 -953 x259 -615 x260 -920 x261 -417 x262 -575 x263 -569 x264 -357 x265 -486 x266 -310 x267 -69 x268 -247 x269 -680 x270 -124 x271 -278 x272 -471 x273 -403 x274 -449 x275 -276 x276 -172 x277 -629 x278 -890 x279 -612 x280 -737 x281 -96 x282 -39 x283 -595 x284 -189 x285 -392 x286 -509 x287 -166 x288 -7 x289 -326 x290 -744 x291 -501 x292 -4 x293 -87 x294 -745 x295 -549 x296 -439 x297 -447 x298 -632 x299 -973 x300 -811 x301 -327 x302 -775 x303 -857 x304 -200 x305 -958 x306 -314 x307 -970 x308 -928 x309 -699 x310 -398 x311 -150 x312 -20 x313 -424 x314 -5 x315 -539 x316 -448 x317 -18 x318 -827 x319 -879 x320 -423 x321 -533 x322 -289 x323 -940 x324 -796 x325 -396 x326 -908 x327 -303 x328 -551 x329 -783 x330 -440 x331 -319 x332 -633 x333 -117 x334 -718 x335 -362 x336 -172 x337 -656 x338 -239 x339 -395 x340 -241 x341 -361 x342 -988 x343 -832 x344 -959 x345 -440 x346 -676 x347 -616 x348 -205 x349 -317 x350 -601 x351 -890 x352 -164 x353 -53 x354 -431 x355 -488 x356 -836 x357 -564 x358 -290 x359 -739 x360 -313 x361 -393 x362 -763 x363 -128 x364 -634 x365 -103 x366 -638 x367 -303 x368 -303 x369 -511 x370 -723 x371 -148 x372 -788 x373 -315 x374 -79 x375 -686 x376 -806 x377 -606 x378 -55 x379 -581 x380 -464 x381 -535 x382 -897 x383 -218 x384 -370 x385 -44 x386 -414 x387 -670 x388 -415 x389 -674 x390 -984 x391 -788 x392 -714 x393 -19 x394 -572 x395 -82 x396 -189 x397 -9 x398 -355 x399 -498 x400 -805 x401 -902 x402 -651 x403 -32 x404 -813 x405 -486 x406 -5 x407 -460 x408 -725 x409 -956 x410 -123 x411 -927 x412 -710 x413 -913 x414 -864 x415 -26 x416 -45 x417 -412 x418 -515 x419 -217 x420 -498 x421 -571 x422 -810 x423 -911 x424 -189 x425 -847 x426 -543 x427 -979 x428 -764 x429 -566 x430 -417 x431 -313 x432 -826 x433 -521 x434 -690 x435 -971 x436 -319 x437 -110 x438 -136 x439 -237 x440 -360 x441 -960 x442 -939 x443 -897 x444 -987 x445 -178 x446 -114 x447 -983 x448 -762 x449 -787 x450 -738 x451 -438 x452 -553 x453 -338 x454 -51 x455 -408 x456 -893 x457 -651 x458 -97 x459 -335 x460 -443 x461 -962 x462 -844 x463 -477 x464 -603 x465 -876 x466 -356 x467 -666 x468 -287 x469 -166 x470 -206 x471 -903 x472 -731 x473 -357 x474 -443 x475 -319 x476 -555 x477 -900 x478 -659 x479 -357 x480 -947 x481 -411 x482 -989 x483 -143 x484 -983 x485 -148 x486 -793 x487 -410 x488 -224 x489 -74 x490 -653 x491 -696 x492 -256 x493 -274 x494 -936 x495 -477 x496 -322 x497 -875 x498 -94 x499 -408 x500 ;
-438 x1 -916 x2 -450 x3 -925 x4 -336 x5 -278 x6 -497 x7 -170 x8 -394 x9 -336 x10 -856 x11 -439 x12 -475 x13 -120 x14 -906 x15 -74 x16 -851 x17 -613 x18 -496 x19 -217 x20 -722 x21 -69 x22 -137 x23 -753 x24 -970 x25 -417 x26 -786 x27 -840 x28 -211 x29 -877 x30 -843 x31 -810 x32 -707 x33 -604 x34 -446 x35 -504 x36 -359 x37 -49 x38 -412 x39 -280 x40 -579 x41 -872 x42 -806 x43 -965 x44 -970 x45 -250 x46 -629 x47 -278 x48 -83 x49 -223 x50 -270 x51 -317 x52 -208 x53 -422 x54 -326 x55 -174 x56 -844 x57 -800 x58 -509 x59 -703 x60 -416 x61 -779 x62 -90 x63 -862 x64 -634 x65 -530 x66 -755 x67 -989 x68 -362 x69 -730 x70 -407 x71 -227 x72 -930 x73 -799 x74 -387 x75 -325 x76 -242 x77 -205 x78 -229 x79 -674 x80 -173 x81 -706 x82 -184 x83 -572 x84 -124 x85 -64 x86 -156 x87 -369 x88 -77 x89 -913 x90 -753 x91 -809 x92 -512 x93 -675 x94 -552 x95 -995 x96 -405 x97 -323 x98 -94 x99 -432 x100 -453 x101 -157 x102 -254 x103 -145 x104 -563 x105 -329 x106 -866 x107 -259 x108 -191 x109 -258 x110 -142 x111 -800 x112 -167 x113 -217 x114 -209 x115 -194 x116 -530 x117 -542 x118 -944 x119 -361 x120 -419 x121 -838 x122 -289 x123 -252 x124 -198 x125 -864 x126 -369 x127 -644 x128 -474 x129 -593 x130 -50 x131 -515 x132 -771 x133 -375 x134 -973 x135 -884 x136 -106 x137 -387 x138 -840 x139 -732 x140 -980 x141 -967 x142 -932 x143 -29 x144 -628 x145 -951 x146 -789 x147 -188 x148 -70 x149 -237 x150 -87 x151 -160 x152 -881 x153 -932 x154 -921 x155 -691 x156 -759 x157 -894 x158 -57 x159 -694 x160 -636 x161 -769 x162 -996 x163 -284 x164 -505 x165 -740 x166 -160 x167 -16 x168 -580 x169 -119 x170 -128 x171 -139 x172 -214 x173 -736 x174 -434 x175 -725 x176 -376 x177 -218 x178 -217 x179 -549 x180 -731 x181 -160 x182 -267 x183 -716 x184 -91 x185 -672 x186 -438 x187 -307 x188 -102 x189 -338 x190 -323 x191 -669 x192 -455 x193 -319 x194 -631 x195 -678 x196 -338 x197 -215 x198 -218 x199 -243 x200 -483 x201 -379 x202 -534 x203 -340 x204 -80 x205 -705 x206 -694 x207 -636 x208 -471 x209 -109 x210 -832 x211 -969 x212 -685 x213 -620 x214 -569 x215 -111 x216 -541 x217 -660 x218 -731 x219 -519 x220 -41 x221 -72 x222 -885 x223 -748 x224 -503 x225 -640 x226 -511 x227 -270 x228 -179 x229 -644 x230 -833 x231 -671 x232 -485 x233 -65 x234 -743 x235 -771 x236 -207 x237 -268 x238 -787 x239 -989 x240 -150 x241 -836 x242 -631 x243 -389 x244 -906 x245 -996 x246 -149 x247 -837 x248 -907 x249 -86 x250 -269 x251 -187 x252 -618 x253 -147 x254 -106 x255 -152 x256 -993 x257 -742 x258 -953 x259 -615 x260 -920 x261 -417 x262 -575 x263 -569 x264 -357 x265 -486 x266 -310 x267 -69 x268 -247 x269 -680 x270 -124 x271 -278 x272 -471 x273 -403 x274 -449 x275 -276 x276 -172 x277 -629 x278 -890 x279 -612 x280 -737 x281 -96 x282 -39 x283 -595 x284 -189 x285 -392 x286 -509 x287 -166 x288 -7 x289 -326 x290 -744 x291 -501 x292 -4 x293 -87 x294 -745 x295 -549 x296 -439 x297 -447 x298 -632 x299 -973 x300 -811 x301 -327 x302 -775 x303 -857 x304 -200 x305 -958 x306 -314 x307 -970 x308 -928 x309 -699 x310 -398 x311 -150 x312 -20 x313 -424 x314 -5 x315 -539 x316 -448 x317 -18 x318 -827 x319 -879 x320 -423 x321 -533 x322 -289 x323 -940 x324 -796 x325 -396 x326 -908 x327 -303 x328 -551 x329 -783 x330 -440 x331 -319 x332 -633 x333 -117 x334 -718 x335 -362 x336 -172 x337 -656 x338 -239 x339 -395 x340 -241 x341 -361 x342 -988 x343 -832 x344 -959 x345 -440 x346 -676 x347 -616 x348 -205 x349 -317 x350 -601 x351 -890 x352 -164 x353 -53 x354 -431 x355 -488 x356 -836 x357 -564 x358 -290 x359 -739 x360 -313 x361 -393 x362 -763 x363 -128 x364 -634 x365 -103 x366 -638 x367 -303 x368 -303 x369 -511 x370 -723 x371 -148 x372 -788 x373 -315 x374 -79 x375 -686 x376 -806 x377 -606 x378 -55 x379 -581 x380 -464 x381 -535 x382 -897 x383 -218 x384 -370 x385 -44 x386 -414 x387 -670 x388 -415 x389 -674 x390 -984 x391 -788 x392 -714 x393 -19 x394 -572 x395 -82 x396 -189 x397 -9 x398 -355 x399 -498 x400 -805 x401 -902 x402 -651 x403 -32 x404 -813 x405 -486 x406 -5 x407 -460 x408 -725 x409 -956 x410 -123 x411 -927 x412 -710 x413 -913 x414 -864 x415 -26 x416 -45 x417 -412 x418 -515 x419 -217 x420 -498 x421 -571 x422 -810 x423 -911 x424 -189 x425 -847 x426 -543 x427 -979 x428 -764 x429 -566 x430 -417 x431 -313 x432 -826 x433 -521 x434 -690 x435 -971 x436 -319 x437 -110 x438 -136 x439 -237 x440 -360 x441 -960 x442 -939 x443 -897 x444 -987 x445 -178 x446 -114 x447 -983 x448 -762 x449 -787 x450 -738 x451 -438 x452 -553 x453 -338 x454 -51 x455 -408 x456 -893 x457 -651 x458 -97 x459 -335 x460 -443 x461 -962 x462 -844 x463 -477 x464 -603 x465 -876 x466 -356 x467 -666 x468 -287 x469 -166 x470 -206 x471 -903 x472 -731 x473 -357 x474 -443 x475 -319 x476 -555 x477 -900 x478 -659 x479 -357 x480 -947 x481 -411 x482 -989 x483 -143 x484 -983 x485 -148 x486 -793 x487 -410 x488 -224 x489 -74 x490 -653 x491 -696 x492 -256 x493 -274 x494 -936 x495 -477 x496 -322 x497 -875 x498 -94 x499 -408 x500 >= -186547 ;